p edge 100 947
e 7 1
e 27 1
e 30 1
e 38 1
e 48 1
e 51 1
e 54 1
e 56 1
e 57 1
e 59 1
e 63 1
e 64 1
e 74 1
e 84 1
e 86 1
e 93 1
e 5 2
e 9 2
e 11 2
e 43 2
e 45 2
e 46 2
e 47 2
e 52 2
e 58 2
e 60 2
e 61 2
e 62 2
e 65 2
e 72 2
e 88 2
e 92 2
e 95 2
e 100 2
e 26 3
e 35 3
e 42 3
e 45 3
e 48 3
e 52 3
e 56 3
e 60 3
e 68 3
e 72 3
e 76 3
e 83 3
e 85 3
e 93 3
e 16 4
e 17 4
e 18 4
e 23 4
e 33 4
e 40 4
e 44 4
e 52 4
e 53 4
e 59 4
e 62 4
e 66 4
e 75 4
e 77 4
e 79 4
e 81 4
e 84 4
e 86 4
e 93 4
e 97 4
e 98 4
e 100 4
e 8 5
e 17 5
e 22 5
e 23 5
e 26 5
e 28 5
e 29 5
e 35 5
e 68 5
e 72 5
e 75 5
e 79 5
e 80 5
e 89 5
e 91 5
e 94 5
e 96 5
e 99 5
e 18 6
e 40 6
e 50 6
e 54 6
e 57 6
e 66 6
e 68 6
e 78 6
e 89 6
e 90 6
e 100 6
e 17 7
e 19 7
e 35 7
e 40 7
e 42 7
e 46 7
e 47 7
e 52 7
e 57 7
e 62 7
e 68 7
e 75 7
e 80 7
e 90 7
e 92 7
e 93 7
e 98 7
e 100 7
e 23 8
e 27 8
e 29 8
e 36 8
e 42 8
e 47 8
e 54 8
e 55 8
e 56 8
e 59 8
e 60 8
e 66 8
e 68 8
e 69 8
e 70 8
e 79 8
e 84 8
e 85 8
e 87 8
e 88 8
e 92 8
e 93 8
e 96 8
e 28 9
e 32 9
e 34 9
e 38 9
e 52 9
e 58 9
e 69 9
e 75 9
e 93 9
e 94 9
e 13 10
e 20 10
e 30 10
e 32 10
e 41 10
e 43 10
e 48 10
e 61 10
e 63 10
e 64 10
e 77 10
e 83 10
e 90 10
e 93 10
e 96 10
e 97 10
e 16 11
e 17 11
e 18 11
e 20 11
e 22 11
e 24 11
e 26 11
e 35 11
e 37 11
e 39 11
e 40 11
e 48 11
e 73 11
e 75 11
e 81 11
e 84 11
e 92 11
e 98 11
e 17 12
e 27 12
e 32 12
e 38 12
e 42 12
e 45 12
e 50 12
e 52 12
e 55 12
e 56 12
e 58 12
e 70 12
e 74 12
e 77 12
e 79 12
e 81 12
e 82 12
e 87 12
e 90 12
e 91 12
e 92 12
e 94 12
e 14 13
e 22 13
e 35 13
e 43 13
e 46 13
e 47 13
e 51 13
e 55 13
e 56 13
e 60 13
e 62 13
e 63 13
e 68 13
e 70 13
e 71 13
e 76 13
e 78 13
e 89 13
e 100 13
e 18 14
e 30 14
e 33 14
e 43 14
e 44 14
e 49 14
e 54 14
e 55 14
e 62 14
e 71 14
e 75 14
e 78 14
e 84 14
e 88 14
e 89 14
e 90 14
e 94 14
e 24 15
e 26 15
e 27 15
e 41 15
e 42 15
e 51 15
e 57 15
e 64 15
e 67 15
e 74 15
e 81 15
e 84 15
e 86 15
e 87 15
e 95 15
e 96 15
e 99 15
e 27 16
e 28 16
e 31 16
e 36 16
e 37 16
e 43 16
e 44 16
e 46 16
e 49 16
e 52 16
e 63 16
e 65 16
e 72 16
e 73 16
e 87 16
e 94 16
e 95 16
e 97 16
e 98 16
e 24 17
e 31 17
e 33 17
e 40 17
e 43 17
e 48 17
e 64 17
e 66 17
e 67 17
e 74 17
e 75 17
e 76 17
e 79 17
e 80 17
e 82 17
e 85 17
e 86 17
e 88 17
e 92 17
e 98 17
e 27 18
e 30 18
e 32 18
e 34 18
e 41 18
e 42 18
e 43 18
e 51 18
e 60 18
e 70 18
e 71 18
e 72 18
e 77 18
e 78 18
e 83 18
e 91 18
e 92 18
e 96 18
e 97 18
e 99 18
e 20 19
e 27 19
e 29 19
e 33 19
e 37 19
e 39 19
e 46 19
e 52 19
e 55 19
e 56 19
e 59 19
e 70 19
e 82 19
e 91 19
e 93 19
e 98 19
e 99 19
e 100 19
e 21 20
e 30 20
e 31 20
e 35 20
e 41 20
e 42 20
e 43 20
e 45 20
e 58 20
e 62 20
e 65 20
e 70 20
e 73 20
e 88 20
e 92 20
e 94 20
e 98 20
e 99 20
e 100 20
e 23 21
e 28 21
e 30 21
e 31 21
e 33 21
e 35 21
e 37 21
e 45 21
e 54 21
e 56 21
e 61 21
e 64 21
e 65 21
e 69 21
e 79 21
e 81 21
e 82 21
e 96 21
e 100 21
e 24 22
e 28 22
e 33 22
e 45 22
e 56 22
e 60 22
e 61 22
e 63 22
e 70 22
e 76 22
e 78 22
e 84 22
e 92 22
e 93 22
e 99 22
e 100 22
e 24 23
e 27 23
e 29 23
e 37 23
e 43 23
e 50 23
e 54 23
e 55 23
e 58 23
e 65 23
e 69 23
e 73 23
e 80 23
e 83 23
e 87 23
e 92 23
e 96 23
e 97 23
e 34 24
e 36 24
e 42 24
e 44 24
e 49 24
e 55 24
e 59 24
e 61 24
e 68 24
e 76 24
e 78 24
e 85 24
e 93 24
e 99 24
e 100 24
e 27 25
e 37 25
e 51 25
e 52 25
e 56 25
e 57 25
e 66 25
e 70 25
e 73 25
e 80 25
e 82 25
e 88 25
e 90 25
e 97 25
e 99 25
e 29 26
e 32 26
e 44 26
e 47 26
e 57 26
e 58 26
e 59 26
e 64 26
e 70 26
e 72 26
e 75 26
e 76 26
e 77 26
e 79 26
e 84 26
e 91 26
e 98 26
e 29 27
e 39 27
e 40 27
e 44 27
e 54 27
e 58 27
e 74 27
e 79 27
e 81 27
e 82 27
e 83 27
e 84 27
e 87 27
e 89 27
e 93 27
e 29 28
e 32 28
e 33 28
e 34 28
e 37 28
e 41 28
e 61 28
e 62 28
e 73 28
e 77 28
e 78 28
e 89 28
e 33 29
e 40 29
e 42 29
e 49 29
e 53 29
e 55 29
e 56 29
e 60 29
e 61 29
e 63 29
e 65 29
e 75 29
e 84 29
e 86 29
e 89 29
e 32 30
e 33 30
e 37 30
e 40 30
e 50 30
e 73 30
e 74 30
e 84 30
e 85 30
e 88 30
e 94 30
e 96 30
e 99 30
e 38 31
e 44 31
e 48 31
e 51 31
e 52 31
e 58 31
e 67 31
e 68 31
e 69 31
e 70 31
e 71 31
e 77 31
e 79 31
e 81 31
e 85 31
e 90 31
e 93 31
e 100 31
e 39 32
e 40 32
e 41 32
e 57 32
e 61 32
e 65 32
e 67 32
e 72 32
e 74 32
e 84 32
e 92 32
e 98 32
e 37 33
e 54 33
e 58 33
e 72 33
e 78 33
e 84 33
e 85 33
e 97 33
e 35 34
e 41 34
e 59 34
e 60 34
e 65 34
e 76 34
e 83 34
e 86 34
e 36 35
e 37 35
e 47 35
e 51 35
e 80 35
e 91 35
e 92 35
e 98 35
e 39 36
e 51 36
e 56 36
e 59 36
e 62 36
e 63 36
e 68 36
e 72 36
e 78 36
e 81 36
e 83 36
e 92 36
e 41 37
e 42 37
e 52 37
e 54 37
e 55 37
e 61 37
e 65 37
e 69 37
e 77 37
e 81 37
e 84 37
e 90 37
e 94 37
e 47 38
e 57 38
e 61 38
e 69 38
e 81 38
e 84 38
e 87 38
e 93 38
e 41 39
e 43 39
e 44 39
e 52 39
e 61 39
e 75 39
e 83 39
e 93 39
e 96 39
e 100 39
e 43 40
e 44 40
e 46 40
e 47 40
e 60 40
e 66 40
e 68 40
e 72 40
e 81 40
e 84 40
e 44 41
e 45 41
e 49 41
e 52 41
e 71 41
e 76 41
e 78 41
e 86 41
e 87 41
e 94 41
e 49 42
e 54 42
e 55 42
e 63 42
e 64 42
e 69 42
e 70 42
e 83 42
e 86 42
e 98 42
e 100 42
e 63 43
e 65 43
e 66 43
e 67 43
e 69 43
e 76 43
e 91 43
e 51 44
e 54 44
e 58 44
e 67 44
e 68 44
e 73 44
e 76 44
e 90 44
e 95 44
e 97 44
e 99 44
e 48 45
e 49 45
e 52 45
e 53 45
e 58 45
e 61 45
e 62 45
e 71 45
e 81 45
e 82 45
e 89 45
e 98 45
e 99 45
e 100 45
e 48 46
e 57 46
e 58 46
e 66 46
e 67 46
e 69 46
e 75 46
e 76 46
e 83 46
e 89 46
e 92 46
e 49 47
e 56 47
e 70 47
e 71 47
e 75 47
e 78 47
e 82 47
e 87 47
e 90 47
e 91 47
e 49 48
e 71 48
e 78 48
e 81 48
e 97 48
e 99 48
e 51 49
e 55 49
e 57 49
e 59 49
e 71 49
e 73 49
e 89 49
e 95 49
e 98 49
e 100 49
e 51 50
e 54 50
e 61 50
e 62 50
e 69 50
e 82 50
e 86 50
e 88 50
e 91 50
e 92 50
e 93 50
e 96 50
e 97 50
e 52 51
e 57 51
e 64 51
e 71 51
e 74 51
e 80 51
e 90 51
e 56 52
e 57 52
e 58 52
e 64 52
e 72 52
e 89 52
e 99 52
e 58 53
e 61 53
e 64 53
e 66 53
e 71 53
e 75 53
e 78 53
e 97 53
e 98 53
e 100 53
e 63 54
e 74 54
e 83 54
e 86 54
e 90 54
e 96 54
e 97 54
e 62 55
e 63 55
e 69 55
e 71 55
e 74 55
e 81 55
e 87 55
e 100 55
e 61 56
e 62 56
e 63 56
e 67 56
e 71 56
e 75 56
e 86 56
e 88 56
e 89 56
e 92 56
e 93 56
e 67 57
e 71 57
e 72 57
e 73 57
e 75 57
e 76 57
e 82 57
e 92 57
e 99 57
e 63 58
e 65 58
e 71 58
e 74 58
e 75 58
e 90 58
e 93 58
e 97 58
e 99 58
e 100 58
e 60 59
e 65 59
e 69 59
e 72 59
e 77 59
e 79 59
e 84 59
e 89 59
e 99 59
e 79 60
e 96 60
e 64 61
e 79 61
e 99 61
e 100 61
e 71 62
e 74 62
e 78 62
e 79 62
e 81 62
e 83 62
e 85 62
e 91 62
e 94 62
e 100 62
e 65 63
e 83 63
e 88 63
e 91 63
e 65 64
e 76 64
e 78 64
e 79 64
e 81 64
e 83 64
e 93 64
e 99 64
e 71 65
e 75 65
e 77 65
e 82 65
e 92 65
e 96 65
e 98 65
e 70 66
e 80 66
e 81 66
e 83 66
e 87 66
e 93 66
e 95 66
e 68 67
e 74 67
e 87 67
e 90 67
e 83 68
e 90 68
e 76 69
e 82 69
e 87 69
e 88 69
e 91 69
e 92 69
e 94 69
e 97 69
e 72 70
e 76 70
e 82 70
e 87 70
e 88 70
e 90 70
e 72 71
e 73 71
e 77 71
e 78 71
e 92 71
e 94 71
e 79 72
e 82 72
e 83 72
e 88 72
e 95 72
e 98 72
e 74 73
e 77 73
e 82 73
e 83 73
e 93 73
e 95 73
e 96 73
e 98 73
e 99 73
e 77 74
e 78 74
e 81 74
e 93 74
e 80 75
e 82 75
e 88 75
e 93 75
e 97 75
e 99 75
e 87 76
e 90 76
e 95 76
e 98 76
e 100 76
e 80 77
e 83 77
e 87 77
e 88 77
e 89 77
e 92 77
e 93 77
e 82 78
e 92 78
e 80 79
e 93 79
e 97 79
e 81 80
e 86 80
e 93 80
e 95 80
e 82 81
e 86 81
e 97 81
e 98 81
e 99 81
e 92 82
e 96 82
e 98 82
e 95 83
e 94 84
e 88 85
e 88 86
e 89 86
e 90 86
e 91 86
e 96 86
e 91 87
e 95 87
e 93 88
e 98 88
e 99 88
e 100 88
e 90 89
e 94 89
e 96 89
e 92 90
e 93 90
e 94 90
e 97 90
e 95 91
e 97 91
e 98 91
e 99 91
e 93 92
e 99 92
